1000 1811
1 2 3 4 5 6 7 8 9 10 11 12 13 14 15 16 17 18 19 20 21 22 23 24 25 26 27 28 29 30 31 32 33 34 35 36 37 38 39 40 41 42 43 44 45 46 47 48 49 50 51 52 53 54 55 56 57 58 59 60 61 62 63 64 65
0 8 66 67 68 69 70 71 72 73 74 75 76 77 78 79 80 81 82 83 84 85 86 87 88 89 90 91 92 93 94 95 96 97 98 99 100 101 102 103 104 105 106 107 108 109 110 111 112 113 114 115 116
0 117 118 119 120 121 122 123 124 125 126 127 128 129 130 131 132 133 134 135 136 137 138 139 140 141 142 143 144 145 146 147 148 149 150 151 152 153 154 155 156 157 158 159 160 161 162 163 164 165 166 167 168 169 170 171 172 173 174 175 176 177 178 179 180 181 182 183 184 185 186 187 188 189 190 191 192 193 194 195 196 197 198 199 200 201 202 203 204 205 206 207 208 209 210 211 212 213 214 215 216 217 218 219 220 221 222 223 224 225 226 227 228 229 230 231 232 233 234 235 236 237 238 239 240 241 242 243 244 245 246 247 248 249 250 251 252 253 254 255 256 257 258 259 260 261 262 263 264 265 266 267 268 269
0 43 270 271 272 273 274 275 276 277 278 279 280 281 282 283 284 285 286 287 288 289 290 291 292 293 294 295 296 297 298 299 300 301 302 303 304 305 306 307 308 309 310 311 312 313 314 315 316 317 318 319 320 321 322 323 324 325 326 327 328 329 330 331 332 333
0 182 334 335 336 337 338 339 340 341 342 343 344 345 346 347 348 349 350 351 352 353 354 355 356 357 358 359 360 361 362 363 364 365 366 367 368 369 370 371 372 373 374 375 376 377 378 379 380 381 382 383 384 385 386 387 388 389 390 391 392 393 394 395 396 397
0 398 399 400 401 402 403 404 405 406 407 408 409 410 411 412 413 414 415 416 417 418 419 420 421 422 423 424 425 426 427 428 429 430 431 432 433
0 235 434 435 436 437 438 439 440 441 442 443 444 445 446 447 448 449 450 451 452 453 454 455 456 457 458 459 460 461 462 463 464 465 466 467 468 469 470 471 472 473 474 475 476 477 478 479 480 481 482 483 484 485 486 487 488 489 490 491 492 493 494 495 496 497 498 499 500 501 502 503 504 505 506 507 508 509 510 511 512 513 514 515 516 517 518 519 520 521 522 523 524 525 526 527 528 529
0 38 46 514 530 531 532 533 534 535 536 537 538 539 540 541 542 543 544 545 546 547 548 549 550 551 552 553 554 555 556 557 558 559 560 561 562 563 564 565 566 567 568 569 570 571 572 573
0 1 36 59 574 575 576 577 578 579 580 581
0 582 583 584 585 586 587 588 589 590 591 592 593 594 595 596 597 598 599 600 601 602 603 604 605 606 607
0 307 608 609 610 611 612 613 614 615 616 617 618 619 620 621 622 623 624 625 626 627 628 629 630 631 632 633 634 635 636 637 638 639 640 641 642 643 644 645 646 647 648 649 650 651 652 653 654 655 656 657 658 659 660 661 662 663 664 665 666 667 668 669 670 671 672 673 674 675 676 677 678 679 680 681 682 683 684 685 686 687 688 689 690 691 692 693 694 695 696 697 698 699 700
0 701 702 703 704 705 706 707 708 709 710 711 712 713 714 715 716 717 718 719 720 721
0 714 722 723 724 725 726 727 728 729 730 731 732 733 734 735 736 737 738 739 740 741 742 743 744 745 746 747 748
0 749 750 751 752 753 754 755 756 757 758 759 760
0 53 761 762 763 764 765 766 767 768 769 770 771 772 773 774 775 776 777 778 779 780 781 782 783 784 785 786 787 788 789 790 791 792 793
0 45 50 54 162 794 795 796 797 798 799 800 801 802 803 804 805 806 807 808 809 810 811 812 813 814 815 816 817 818 819 820 821 822 823 824 825 826 827 828 829 830 831 832 833 834 835 836 837 838 839 840 841 842 843 844 845 846 847 848 849 850 851 852 853 854 855 856 857 858 859 860 861 862 863 864
0 246 865 866 867 868 869 870 871 872 873 874 875 876 877 878 879 880 881 882 883 884 885 886 887 888 889 890 891 892 893 894 895 896 897 898 899 900 901 902 903 904 905 906 907 908 909 910 911 912 913 914 915 916 917 918 919 920 921 922 923 924 925 926 927 928 929 930 931 932 933 934 935 936 937 938 939 940 941 942 943 944 945 946 947 948 949 950 951 952 953 954 955 956 957 958 959 960 961 962 963 964 965 966 967 968 969 970 971 972 973 974 975 976 977 978
0 131 160 182 202 221 260 342 489 979 980 981 982 983 984 985 986 987 988 989 990 991 992 993 994 995 996 997 998 999
0
0 389
0
0
0 47 352 498 962
0 293 328 773 844
0 664
0
0 150 166 178 197 204 218 264 374 489 721
0
0 221 481
0 461 489
0
0
0 311 588
0 41 307 785
0 40
0 491
0 8
0
0 7 374
0 326 781
0 34
0 33 294
0 502 729
0 3 53 283 491 761 776 787 813 820
0
0 15 598
0 7 352 522 977
0 22 235 883
0
0
0 15
0
0 130 466 948
0 14 43 761 762 765 768 776 787 789 793
0 15 844
0 182 201 408 521 522 734
0 900
0 315
0
0 8
0
0
0 178 204
0 732
0
0
1 101
1 79
1 115
1 73
1 106 111
1 79 648
1 104
1 69 80 111 113
1 77 81 98 945
1 91 112
1
1 74
1 86 92 111
1 67 71 648
1 73 92 93 110 111 113
1 74
1 111
1 87 99 115 129 149 919
1
1
1 78
1 83 99
1 111
1 94 96
1 97 101
1 75 112
1 78 80 93 96 110 111 113
1 80 92 111
1 89
1
1 89 92 111
1 90 101 992
1 74
1 83 87
1
1 66 90 97
1
1 115
1 72
1
1 70 111
1
1
1
1 80 92 111
1 70 73 78 80 82 88 92 93 96 106 110 113
1 75 91
1 73 80 92 111
1 116
1 68 83 103 129
1 114
2
2
2
2
2
2
2
2
2 150
2 919
2
2
2 83 115 146 194 219
2 52
2 17 231
2
2
2 548 563
2
2
2
2
2
2
2
2
2
2
2
2 129
2
2
2 83
2 26 125 807
2
2 234
2
2
2
2
2
2
2
2 17
2 707
2 15 804 805 806 809 810 819 836 838 841 846 850 860
2
2
2
2 26 197
2 264
2 176
2
2
2
2
2
2
2 514
2 168
2
2 26 62
2
2
2
2 4 17 55 362
2
2
2
2
2
2
2 256
2
2
2
2
2 129
2
2
2 26 166
2 259
2
2
2 55 883
2 17 989
2
2 26 62
2
2 251
2
2 415
2
2
2
2
2
2
2
2
2
2 26
2 129
2
2 17 28
2
2
2 817
2
2
2 543
2
2
2
2 131
2
2
2 152
2 6 47
2
2
2
2
2
2
2
2
2
2
2 16
2
2
2
2
2 206
2
2
2
2
2 189
2
2
2 198
2 17
2
2
2 817
2 26 167
2
2
2
2
2
3 271 274 277 284 292 294 302 307 311 312 313 317 319 320 321 326 331 333
3 270 284 289 292 294 295 296 303 304 307 311 312 313 317 319 320 321 326 333
3
3 280
3 270 289 292 295 304 307 311 312 317 320 321 326 333
3 281 638
3 286
3 270 302
3 293
3
3 273
3 275 291 332
3 293 781 840
3 43 296 310 323 331
3 270 271 289 292 313 319 320
3
3 276
3 614 773
3 327 330 636
3 271 274 284 292 294 312 313 317 320 321 590 602 636
3 796 844
3 281 781 803 842
3 270 271 274 284 289 294 304 307 311 312 313 317 319 320 321 326 333 585 698
3 23 278 282 302 317 324 326 840
3 41 270 271 289 292 295 307 313 319 320 331
3 271 274 294 307 311 312 317 321 638
3 271 283 303 310 314 575 840
3 310
3 636
3
3 587 598
3
3 270 277 293 844
3 271 296
3 271 274 292 313 319 320 636
3 771 830
3
3 10 33 270 271 274 292 294 295 311 312 317 321 333
3 313 775
3
3 283 296 297 325
3 32 270 271 274 292 295 307 313 319 320
3 270 271 274 289 292 295 307 313 319 320
3 270 271 284 289 292 294 304 308 311 312 314 317 320 321 333 636 775
3 296 313 330 575 840 844
3 57
3 580 840 844
3 270 271 274 289 292 293 295 307 313 320
3 695
3 270 271 284 292 294 304 311 312 320
3 270 271 274 284 289 292 294 304 311 312 313 317 319 321 333
3 270 271 274 289 292 295 307 313 320 607
3 636
3 283
3 293
3 310
3 39 270 271 274 292 293
3 288 790 844
3 23 675 844
3
3 288 314 331 575 580
3 270 283 294 330 580
3 281
3 270 271 274 292 307 313 320
4
4
4
4
4
4
4
4 385
4 17
4
4
4
4
4 381
4
4
4
4 383
4 22 46 813
4
4
4
4
4
4
4
4
4
4 182
4
4
4
4
4
4
4
4
4
4
4
4 26 38
4
4
4
4
4
4
4 347 392
4
4 351
4
4 341
4
4
4
4 19
4
4
4 381
4
4
4
4
4
5 410 514
5
5
5
5
5
5 422
5 432
5
5
5 55
5 415
5 398 426
5
5
5
5
5 208 409 520
5
5
5
5 420
5 419
5
5 404
5
5 948
5
5 410
5
5 919
5 432
5
5
5 405 429
5
6
6
6
6
6
6
6
6
6
6
6
6
6 473 501
6
6
6
6
6
6 553
6 466
6
6
6
6
6
6
6
6 29
6
6
6
6
6 52 453
6
6
6
6
6
6
6 446
6
6
6
6
6 489
6
6
6 28
6
6
6
6
6
6
6
6 17 26 29 478 734
6
6 35 43 579 776
6
6
6
6
6
6 529
6 22 964
6
6
6 446
6 42
6
6
6
6
6
6
6
6
6
6
6
6 7 175 398 546
6 691
6
6 725
6
6 794
6 415
6 55
6 46 55
6
6
6
6
6
6
6 497
7
7
7 536 538 541 548 549 550 551 552 556 557 563 569 570 572 573
7 541 545 567 573
7 566
7
7 532 538 541 552 563 570 572 573
7 542
7 532 536 541 552 570 572 573
7 929
7
7 532 533 536 538 547 548 552 561 563 567 570 572 573
7 537
7 227
7
7 533 567
7 514
7 541 568 573
7 134 532 541 556 569 570 572 573
7 532 551
7 532
7 532 549
7 532 536 538 541 563 570 572 573
7 452
7
7
7 532 548 569 572
7 532
7
7
7 590 616 641 877
7 541 573
7 568
7 134 532 536 541 552 570 572 573
7
7 936
7 534
7 533 541 545 568
7 547 562 567 573 919
7 532 548 556 572
7 532 536 538 541 548 552 563 572 573
7
7 532 536 538 541 548 552 556 563 569 570 573
7 532 533 536 538 541 547 548 552 561 563 568 570 572
8
8 296 314 330 580 822 844
8 773 781
8
8 844
8 491 662
8 316 330 331 575
8
9 593 605
9 596 603 621 655 683 706
9 603 621
9 292 591
9 602 606
9 300 596 598 599 603 671 678
9 32 590 592 607 636 646
9 594 601
9 289 560 588 616 636 641
9 585 592 593 596 598 599 600 603 605 638
9 588 591 594 599 601 602 603 606 607 638 641 655
9 582 591 605 643
9 589 592 601 607
9 599 600 603
9 583 587 591 598 599 602 603 607 674
9
9 45 300 587 591 596 599 638 667
9 587 591 592 595 596 598 600 603 605 655
9 591 595 599
9 589 592 594 616
9 289 586 592 596 603 606 607 655 674
9 583 584 587 591 592 595 596 599 602 605 606 607
9
9 582 591 593 599 603 859
9 586 592 602 603
9 321 588 592 594 596 602 603 674
10 695
10 675 698
10 643 685
10
10
10
10 287 616 627 637 662 695
10 653
10 560 590 601 614 636 641 919
10
10 636 817
10 919
10 664 694
10 583 584
10 626
10 625 651 673 689
10
10 623 651 653 694
10 622 641 666
10 614
10 631 694 695
10
10
10 628 653 664 678 695
10
10
10 675
10
10 288 289 298 304 313 322 588 590 616 618 646
10 614 651 655 695
10 275 295 591 592 598 778 803
10
10 653
10 560 590 592 616 626 662 674 685 689
10
10 593 610 653 668 692
10
10 689
10 588 636 663
10 662
10 71 79
10
10
10 623 625 637 664
10
10 615 625 631 640 643 654 666 673 677 678 689
10 653 677
10 583 592 599 602 637 674
10 978
10
10
10 665 694
10
10
10 579 614 641 647 689
10 646
10 24 620 631 651 666 678 692 693 695
10 659
10 626 653 664 777
10 598
10 643
10 810 821
10
10 587
10 694
10 623 653
10 596 602 607 641 655
10 328 609 634
10 678 692
10 653 654
10 587 631 653 664 676 692
10
10 796
10
10
10 583
10
10 610 641
10
10
10
10 623 641 645 653 662 694
10
10 515
10 643 664 676 678
10 664 695
10 620 625 628 659 672 689 695
10 318 608 614 628 631 637 664 693 694
10
10 971
10 292 609
10
10
11
11
11 718
11
11
11 583
11 161
11 973
11 713
11
11
11
11 709
11 12 730
11
11
11
11 703 721
11
11
11 26 718
12 723
12 722
12
12 517
12
12
12
12 42
12 714
12
12 63
12
12 55 489
12
12
12
12
12
12
12
12
12
12
12
12
12
12
13
13 756 760
13 755 757
13
13 760
13
13 751 757
13 750
13 751 755
13
13
13 750 753
14 43 53 764 765 776 782
14 53 777 793
14
14 761 765 776
14 53 761 764 776 777 780 782 786 787 789 793
14 769 789
14 844
14 53
14 766 789
14
14 305 827
14 842
14 23 287 576
14 785 803
14 308 313 787
14 43 53 491 761 764 765 782
14 666 762 765 787 793
14 638
14
14 765 786
14 39 282 291 576
14 761 765 776
14
14
14 33 774 825
14 765 780
14 43 53 765 775 777 793
14 834
14 53 765 766 769
14 327 817 862
14
14 822
14 53 762 765 777 787
15 519
15 799 826
15 290 680 844
15
15
15 795 826 842
15 852 855 862
15
15 850
15 291 638 774 820 824 855 862
15 162 850
15 162 806 809 810 819 836 846 850 860
15 162 805 810 819 846 850 860
15 150
15
15 162 805 810 819 841 850
15 162 669 805 806 809 819 828 836 847 860
15 824 852 853 855 862
15 841 850
15 43 352 837
15
15
15
15 224 263 618 790
15 820
15 162 805 806 809 810 836 838 841 860
15 43 803 818 822 824 829
15 669
15 575 792 820 824 852 855 862
15
15 803 811 820 822 862
15 785 842
15 795 799 842
15 771
15 810 841 850
15 820
15 305 961
15
15
15 863
15 788 912
15
15 162 805 810 819 841 850
15 813 848
15 162 819 841
15 852 853
15 282 293 296 314 316 844 863
15 162 809 812 819 828 836 838 850 856
15 291 772 799 825 826 843
15 842
15 23 54 290 302 314 316 327 328 575 578 767 796 840 863
15
15 162 805 806
15 810 860
15 837
15
15 162 802 804 805 806 809 812 828 836 841 860
15
15 800 811 822 839 853 862
15 811 839 852
15
15 800 803 811 822 862
15 841
15
15
15 605
15 162 805 806 810 819 847 850
15
15 790 800 803 811 822 824 852 855
15 833 840 844
15
16
16
16
16
16
16
16
16
16 898 903 908 910 915 936 945 971 978
16
16
16
16 560
16
16 971
16
16
16
16 47 201
16
16
16
16
16
16
16
16
16
16 971
16
16
16
16
16 873 945
16
16 56 971
16
16
16 873 915 945
16
16
16
16
16 873
16
16 873 935 945
16 921
16 834
16
16 944
16 873 903 935 945 978
16
16
16
16 83 126 428 568 616 619 944
16
16 911
16
16
16
16
16
16
16 971
16 539
16 971
16 945 978
16
16
16 971
16 910 915 944
16 565 873 945 971 978
16
16
16
16
16
16
16
16 914 919 935
16 74 873 898 903 910 915 931 936 957 965 978
16
16
16 52 424
16
16
16
16
16
16
16
16
16 945 978
16 971
16
16
16 830
16 22
16
16 498
16 945 978
16
16
16
16
16 973
16 697 873 879 893 900 928 930 934 936 958
16
16 708 970
16
16
16
16 46
16 656 873 915 931 936 945 957 965
17
17
17
17
17
17
17
17
17
17
17 202
17
17
17 97
17
17
17
17
17
17
17
